c "12666.clq"
p edge 142 552
e 1 5
e 1 6
e 1 7
e 1 8
e 1 9
e 1 11
e 1 13
e 1 18
e 1 20
e 1 34
e 1 44
e 1 48
e 1 54
e 1 62
e 1 67
e 1 103
e 1 111
e 1 112
e 1 113
e 1 131
e 2 5
e 2 6
e 2 10
e 2 11
e 2 12
e 2 20
e 2 25
e 2 42
e 2 68
e 2 70
e 2 77
e 2 79
e 2 91
e 2 112
e 2 113
e 2 140
e 2 142
e 3 5
e 3 6
e 3 7
e 3 8
e 3 23
e 3 28
e 3 30
e 3 41
e 3 43
e 3 48
e 3 52
e 3 66
e 3 75
e 3 95
e 3 138
e 4 5
e 4 7
e 4 9
e 4 10
e 4 16
e 4 44
e 4 53
e 4 56
e 4 74
e 4 83
e 4 107
e 4 109
e 4 129
e 5 6
e 5 8
e 5 9
e 5 10
e 5 12
e 5 14
e 5 15
e 5 17
e 5 24
e 5 29
e 5 32
e 5 37
e 5 38
e 5 42
e 5 43
e 5 45
e 5 46
e 5 47
e 5 55
e 5 56
e 5 63
e 5 66
e 5 67
e 5 69
e 5 70
e 5 71
e 5 72
e 5 73
e 5 74
e 5 87
e 5 88
e 5 92
e 5 99
e 5 110
e 5 112
e 5 116
e 5 120
e 5 122
e 5 127
e 5 133
e 5 137
e 6 7
e 6 8
e 6 11
e 6 12
e 6 13
e 6 16
e 6 18
e 6 22
e 6 23
e 6 24
e 6 26
e 6 30
e 6 34
e 6 43
e 6 44
e 6 49
e 6 60
e 6 65
e 6 69
e 6 80
e 6 89
e 6 101
e 6 107
e 6 108
e 6 111
e 6 114
e 6 117
e 6 118
e 6 130
e 6 134
e 6 139
e 6 140
e 7 9
e 7 10
e 7 13
e 7 14
e 7 16
e 7 18
e 7 19
e 7 25
e 7 29
e 7 44
e 7 59
e 7 62
e 7 65
e 7 68
e 7 69
e 7 72
e 7 88
e 7 95
e 7 105
e 7 116
e 7 129
e 7 137
e 8 12
e 8 25
e 8 26
e 8 27
e 8 30
e 8 34
e 8 37
e 8 51
e 8 56
e 8 66
e 8 90
e 8 101
e 9 13
e 9 15
e 9 22
e 9 31
e 9 42
e 9 47
e 9 49
e 9 60
e 9 62
e 9 98
e 9 113
e 9 132
e 9 142
e 10 11
e 10 14
e 10 17
e 10 18
e 10 25
e 10 27
e 10 34
e 10 39
e 10 96
e 10 122
e 10 126
e 10 136
e 10 139
e 11 14
e 11 15
e 11 17
e 11 19
e 11 21
e 11 23
e 11 24
e 11 26
e 11 32
e 11 41
e 11 45
e 11 57
e 11 59
e 11 63
e 11 71
e 11 76
e 11 85
e 11 94
e 11 98
e 11 102
e 11 119
e 11 124
e 11 135
e 12 15
e 12 19
e 12 20
e 12 21
e 12 27
e 12 33
e 12 36
e 12 46
e 12 48
e 12 52
e 12 57
e 12 72
e 12 78
e 12 83
e 12 90
e 12 96
e 12 101
e 12 104
e 12 106
e 12 108
e 12 127
e 12 138
e 13 16
e 13 19
e 13 22
e 13 33
e 13 40
e 13 50
e 13 62
e 13 66
e 13 78
e 13 90
e 13 115
e 13 129
e 15 17
e 15 21
e 15 30
e 15 31
e 15 45
e 15 59
e 15 80
e 15 100
e 15 103
e 15 107
e 15 121
e 15 135
e 16 22
e 16 27
e 16 28
e 16 29
e 16 58
e 16 63
e 16 67
e 16 68
e 16 82
e 16 97
e 16 110
e 16 115
e 16 119
e 17 35
e 17 68
e 18 20
e 18 32
e 18 36
e 18 38
e 18 40
e 18 83
e 18 92
e 18 134
e 19 37
e 19 38
e 19 39
e 19 61
e 19 71
e 19 91
e 19 93
e 19 99
e 19 118
e 19 123
e 20 21
e 20 23
e 20 26
e 20 31
e 20 51
e 20 54
e 20 58
e 20 59
e 20 61
e 20 64
e 20 97
e 20 126
e 20 127
e 20 128
e 20 133
e 20 136
e 20 138
e 21 24
e 21 75
e 21 89
e 21 107
e 21 115
e 21 142
e 22 32
e 22 33
e 22 42
e 22 56
e 23 28
e 23 46
e 23 52
e 23 57
e 23 73
e 23 79
e 23 109
e 23 124
e 24 28
e 24 29
e 24 31
e 24 41
e 24 60
e 24 88
e 24 103
e 24 105
e 24 133
e 25 35
e 25 40
e 25 41
e 25 47
e 25 51
e 25 54
e 25 64
e 25 81
e 25 106
e 25 120
e 25 131
e 26 33
e 26 36
e 26 47
e 26 49
e 26 83
e 26 86
e 27 35
e 27 45
e 27 46
e 27 67
e 27 70
e 27 79
e 27 82
e 27 87
e 27 106
e 27 115
e 27 139
e 28 38
e 28 75
e 28 87
e 28 98
e 29 37
e 29 55
e 29 64
e 29 76
e 29 82
e 29 85
e 29 100
e 29 114
e 29 124
e 29 132
e 30 39
e 30 73
e 30 105
e 30 134
e 31 36
e 31 60
e 31 98
e 31 118
e 33 71
e 33 84
e 33 90
e 33 123
e 34 35
e 34 53
e 34 74
e 34 76
e 34 78
e 34 81
e 34 97
e 35 50
e 35 55
e 35 61
e 35 72
e 35 76
e 35 77
e 35 104
e 35 117
e 35 118
e 35 123
e 35 125
e 35 138
e 36 39
e 37 104
e 38 40
e 38 43
e 38 50
e 38 53
e 38 93
e 38 106
e 39 131
e 40 50
e 42 48
e 42 70
e 42 82
e 42 85
e 42 134
e 43 57
e 43 84
e 44 52
e 44 84
e 45 51
e 45 53
e 45 91
e 45 99
e 45 127
e 47 81
e 47 86
e 47 102
e 47 125
e 47 129
e 48 49
e 48 95
e 48 119
e 48 123
e 49 65
e 49 73
e 50 58
e 50 81
e 50 117
e 51 54
e 51 55
e 51 111
e 51 122
e 52 93
e 52 94
e 52 102
e 52 120
e 53 77
e 53 89
e 53 126
e 54 61
e 54 77
e 55 58
e 55 87
e 56 78
e 57 80
e 58 84
e 58 92
e 58 95
e 58 109
e 59 64
e 59 88
e 59 91
e 60 63
e 60 93
e 61 65
e 61 69
e 61 74
e 61 94
e 61 105
e 61 109
e 61 114
e 61 120
e 62 130
e 63 80
e 63 112
e 63 130
e 63 142
e 65 126
e 66 121
e 67 124
e 69 79
e 69 99
e 70 128
e 71 86
e 71 110
e 72 75
e 72 110
e 72 131
e 73 125
e 73 140
e 75 89
e 76 128
e 77 86
e 80 94
e 80 97
e 81 100
e 82 111
e 82 114
e 84 85
e 84 92
e 89 96
e 89 104
e 89 128
e 89 141
e 90 116
e 90 122
e 92 140
e 93 96
e 93 135
e 93 139
e 94 101
e 97 100
e 97 102
e 97 108
e 97 113
e 97 117
e 99 103
e 99 125
e 99 136
e 100 135
e 103 121
e 106 108
e 106 130
e 107 119
e 107 121
e 108 137
e 109 141
e 112 137
e 113 116
e 114 141
e 120 132
e 122 132
e 122 136
e 125 133
e 129 141
